c colouring generated by benchmark framework
p edge 121 1980
v 1 4
v 2 11
v 3 12
v 4 2
v 5 10
v 6 8
v 7 5
v 8 3
v 9 7
v 10 6
v 11 1
v 12 7
v 13 9
v 14 5
v 15 6
v 16 3
v 17 4
v 18 12
v 19 1
v 20 10
v 21 11
v 22 2
v 23 3
v 24 12
v 25 8
v 26 7
v 27 2
v 28 1
v 29 11
v 30 4
v 31 0
v 32 9
v 33 10
v 34 9
v 35 1
v 36 2
v 37 10
v 38 6
v 39 0
v 40 7
v 41 12
v 42 5
v 43 3
v 44 4
v 45 11
v 46 6
v 47 9
v 48 0
v 49 5
v 50 2
v 51 3
v 52 10
v 53 8
v 54 7
v 55 12
v 56 5
v 57 0
v 58 4
v 59 8
v 60 9
v 61 6
v 62 1
v 63 7
v 64 11
v 65 2
v 66 3
v 67 1
v 68 7
v 69 3
v 70 5
v 71 4
v 72 11
v 73 2
v 74 8
v 75 9
v 76 12
v 77 6
v 78 10
v 79 2
v 80 1
v 81 9
v 82 7
v 83 12
v 84 6
v 85 0
v 86 4
v 87 5
v 88 8
v 89 6
v 90 8
v 91 7
v 92 4
v 93 1
v 94 3
v 95 10
v 96 5
v 97 12
v 98 0
v 99 11
v 100 12
v 101 10
v 102 6
v 103 11
v 104 0
v 105 5
v 106 8
v 107 2
v 108 3
v 109 1
v 110 9
v 111 2
v 112 3
v 113 0
v 114 12
v 115 8
v 116 9
v 117 4
v 118 11
v 119 6
v 120 10
v 121 7
